language Essence 1.3

letting can_fly be
        relation((1, 2), (1, 3), (1, 4), (1, 10), (1, 11), (1, 12), (1, 13), (1, 14), (1, 15), (1, 16), (1, 17),
                 (1, 18), (1, 21), (1, 22), (1, 23), (1, 26), (1, 27), (1, 29), (1, 30), (1, 31), (1, 32), (1, 33),
                 (1, 34), (1, 35), (2, 3), (2, 4), (2, 6), (2, 7), (2, 8), (2, 9), (2, 11), (2, 12), (2, 16), (2, 17),
                 (2, 18), (2, 20), (2, 21), (2, 22), (2, 23), (2, 24), (2, 25), (2, 26), (2, 27), (2, 28), (2, 29),
                 (2, 31), (2, 32), (2, 34), (2, 35), (3, 1), (3, 2), (3, 3), (3, 4), (3, 5), (3, 6), (3, 8), (3, 9),
                 (3, 10), (3, 11), (3, 13), (3, 14), (3, 15), (3, 16), (3, 19), (3, 22), (3, 23), (3, 24), (3, 26),
                 (3, 27), (3, 33), (3, 34), (3, 35), (4, 2), (4, 3), (4, 4), (4, 5), (4, 6), (4, 7), (4, 8), (4, 9),
                 (4, 10), (4, 12), (4, 15), (4, 16), (4, 17), (4, 18), (4, 20), (4, 22), (4, 23), (4, 24), (4, 26),
                 (4, 28), (4, 29), (4, 30), (4, 32), (4, 33), (5, 1), (5, 2), (5, 3), (5, 5), (5, 6), (5, 8), (5, 9),
                 (5, 11), (5, 14), (5, 15), (5, 17), (5, 18), (5, 20), (5, 22), (5, 23), (5, 25), (5, 27), (5, 28),
                 (5, 31), (5, 32), (5, 33), (5, 35), (6, 1), (6, 3), (6, 4), (6, 5), (6, 6), (6, 7), (6, 8), (6, 9),
                 (6, 11), (6, 12), (6, 14), (6, 15), (6, 16), (6, 17), (6, 18), (6, 19), (6, 20), (6, 21), (6, 22),
                 (6, 23), (6, 27), (6, 28), (6, 29), (6, 30), (6, 32), (6, 35), (7, 1), (7, 4), (7, 6), (7, 7), (7, 8),
                 (7, 9), (7, 10), (7, 11), (7, 12), (7, 13), (7, 14), (7, 15), (7, 16), (7, 17), (7, 18), (7, 21),
                 (7, 23), (7, 24), (7, 25), (7, 26), (7, 28), (7, 29), (7, 32), (7, 33), (8, 1), (8, 2), (8, 3), (8, 6),
                 (8, 9), (8, 10), (8, 11), (8, 12), (8, 13), (8, 14), (8, 16), (8, 17), (8, 21), (8, 22), (8, 25),
                 (8, 26), (8, 28), (8, 29), (8, 33), (8, 35), (9, 2), (9, 3), (9, 4), (9, 7), (9, 8), (9, 10), (9, 11),
                 (9, 12), (9, 13), (9, 14), (9, 18), (9, 19), (9, 20), (9, 21), (9, 22), (9, 23), (9, 24), (9, 25),
                 (9, 26), (9, 27), (9, 29), (9, 30), (9, 31), (9, 33), (9, 35), (10, 1), (10, 3), (10, 4), (10, 5),
                 (10, 6), (10, 7), (10, 10), (10, 11), (10, 12), (10, 13), (10, 15), (10, 18), (10, 20), (10, 21),
                 (10, 22), (10, 23), (10, 24), (10, 25), (10, 26), (10, 27), (10, 28), (10, 29), (10, 30), (10, 33),
                 (10, 35), (11, 1), (11, 3), (11, 4), (11, 5), (11, 6), (11, 7), (11, 8), (11, 11), (11, 12), (11, 13),
                 (11, 15), (11, 16), (11, 18), (11, 19), (11, 21), (11, 28), (11, 29), (11, 30), (11, 31), (11, 32),
                 (11, 33), (11, 35), (12, 4), (12, 7), (12, 8), (12, 10), (12, 11), (12, 12), (12, 14), (12, 16),
                 (12, 20), (12, 21), (12, 23), (12, 26), (12, 29), (12, 30), (12, 33), (12, 35))
$ Visualisation for can_fly
$  1  2
$  1  3
$  1  4
$  1 10
$  1 11
$  1 12
$  1 13
$  1 14
$  1 15
$  1 16
$  1 17
$  1 18
$  1 21
$  1 22
$  1 23
$  1 26
$  1 27
$  1 29
$  1 30
$  1 31
$  1 32
$  1 33
$  1 34
$  1 35
$  2  3
$  2  4
$  2  6
$  2  7
$  2  8
$  2  9
$  2 11
$  2 12
$  2 16
$  2 17
$  2 18
$  2 20
$  2 21
$  2 22
$  2 23
$  2 24
$  2 25
$  2 26
$  2 27
$  2 28
$  2 29
$  2 31
$  2 32
$  2 34
$  2 35
$  3  1
$  3  2
$  3  3
$  3  4
$  3  5
$  3  6
$  3  8
$  3  9
$  3 10
$  3 11
$  3 13
$  3 14
$  3 15
$  3 16
$  3 19
$  3 22
$  3 23
$  3 24
$  3 26
$  3 27
$  3 33
$  3 34
$  3 35
$  4  2
$  4  3
$  4  4
$  4  5
$  4  6
$  4  7
$  4  8
$  4  9
$  4 10
$  4 12
$  4 15
$  4 16
$  4 17
$  4 18
$  4 20
$  4 22
$  4 23
$  4 24
$  4 26
$  4 28
$  4 29
$  4 30
$  4 32
$  4 33
$  5  1
$  5  2
$  5  3
$  5  5
$  5  6
$  5  8
$  5  9
$  5 11
$  5 14
$  5 15
$  5 17
$  5 18
$  5 20
$  5 22
$  5 23
$  5 25
$  5 27
$  5 28
$  5 31
$  5 32
$  5 33
$  5 35
$  6  1
$  6  3
$  6  4
$  6  5
$  6  6
$  6  7
$  6  8
$  6  9
$  6 11
$  6 12
$  6 14
$  6 15
$  6 16
$  6 17
$  6 18
$  6 19
$  6 20
$  6 21
$  6 22
$  6 23
$  6 27
$  6 28
$  6 29
$  6 30
$  6 32
$  6 35
$  7  1
$  7  4
$  7  6
$  7  7
$  7  8
$  7  9
$  7 10
$  7 11
$  7 12
$  7 13
$  7 14
$  7 15
$  7 16
$  7 17
$  7 18
$  7 21
$  7 23
$  7 24
$  7 25
$  7 26
$  7 28
$  7 29
$  7 32
$  7 33
$  8  1
$  8  2
$  8  3
$  8  6
$  8  9
$  8 10
$  8 11
$  8 12
$  8 13
$  8 14
$  8 16
$  8 17
$  8 21
$  8 22
$  8 25
$  8 26
$  8 28
$  8 29
$  8 33
$  8 35
$  9  2
$  9  3
$  9  4
$  9  7
$  9  8
$  9 10
$  9 11
$  9 12
$  9 13
$  9 14
$  9 18
$  9 19
$  9 20
$  9 21
$  9 22
$  9 23
$  9 24
$  9 25
$  9 26
$  9 27
$  9 29
$  9 30
$  9 31
$  9 33
$  9 35
$ 10  1
$ 10  3
$ 10  4
$ 10  5
$ 10  6
$ 10  7
$ 10 10
$ 10 11
$ 10 12
$ 10 13
$ 10 15
$ 10 18
$ 10 20
$ 10 21
$ 10 22
$ 10 23
$ 10 24
$ 10 25
$ 10 26
$ 10 27
$ 10 28
$ 10 29
$ 10 30
$ 10 33
$ 10 35
$ 11  1
$ 11  3
$ 11  4
$ 11  5
$ 11  6
$ 11  7
$ 11  8
$ 11 11
$ 11 12
$ 11 13
$ 11 15
$ 11 16
$ 11 18
$ 11 19
$ 11 21
$ 11 28
$ 11 29
$ 11 30
$ 11 31
$ 11 32
$ 11 33
$ 11 35
$ 12  4
$ 12  7
$ 12  8
$ 12 10
$ 12 11
$ 12 12
$ 12 14
$ 12 16
$ 12 20
$ 12 21
$ 12 23
$ 12 26
$ 12 29
$ 12 30
$ 12 33
$ 12 35

letting carry_in be
        function(1 --> 35, 2 --> 9, 3 --> 28, 4 --> 3, 5 --> 6, 6 --> 25, 7 --> 4, 8 --> 33, 9 --> 30, 10 --> 29,
                 11 --> 19, 12 --> 18)
letting maint be {1, 2, 3, 5, 9, 13, 14, 16, 18, 19, 24, 28, 32, 33, 34}
letting maint_freq be 5
letting n_flights be 35
letting n_planes be 12
letting network be
        relation((1, 2), (1, 4), (1, 6), (1, 8), (1, 14), (1, 17), (1, 19), (1, 21), (1, 22), (1, 23), (1, 25), (1, 26),
                 (1, 28), (1, 32), (2, 3), (2, 5), (2, 10), (2, 15), (2, 17), (2, 19), (2, 21), (2, 23), (2, 24),
                 (2, 26), (2, 27), (2, 28), (2, 30), (2, 31), (2, 34), (3, 3), (3, 5), (3, 6), (3, 10), (3, 12),
                 (3, 16), (3, 17), (3, 18), (3, 20), (3, 21), (3, 22), (3, 23), (3, 24), (3, 25), (3, 27), (3, 29),
                 (3, 31), (3, 32), (4, 4), (4, 7), (4, 13), (4, 15), (4, 16), (4, 18), (4, 19), (4, 20), (4, 23),
                 (4, 26), (4, 30), (4, 32), (4, 33), (4, 34), (5, 5), (5, 8), (5, 9), (5, 11), (5, 13), (5, 14),
                 (5, 18), (5, 20), (5, 21), (5, 22), (5, 25), (5, 26), (5, 27), (5, 29), (5, 33), (6, 1), (6, 10),
                 (6, 11), (6, 13), (6, 17), (6, 18), (6, 19), (6, 21), (6, 22), (6, 23), (6, 25), (6, 27), (6, 28),
                 (6, 29), (6, 30), (6, 31), (6, 34), (7, 3), (7, 7), (7, 17), (7, 21), (7, 22), (7, 23), (7, 25),
                 (7, 27), (7, 28), (7, 31), (7, 33), (7, 34), (7, 35), (8, 3), (8, 5), (8, 7), (8, 9), (8, 10), (8, 12),
                 (8, 14), (8, 15), (8, 17), (8, 18), (8, 19), (8, 20), (8, 21), (8, 24), (8, 32), (8, 34), (8, 35),
                 (9, 1), (9, 2), (9, 7), (9, 8), (9, 9), (9, 10), (9, 11), (9, 12), (9, 13), (9, 15), (9, 16), (9, 19),
                 (9, 23), (9, 25), (9, 26), (9, 27), (9, 28), (9, 32), (10, 1), (10, 2), (10, 3), (10, 6), (10, 7),
                 (10, 9), (10, 11), (10, 12), (10, 13), (10, 15), (10, 16), (10, 17), (10, 20), (10, 22), (10, 24),
                 (10, 25), (10, 26), (10, 29), (10, 30), (10, 31), (10, 32), (10, 33), (10, 35), (11, 1), (11, 3),
                 (11, 5), (11, 6), (11, 10), (11, 12), (11, 17), (11, 20), (11, 21), (11, 30), (11, 31), (11, 33),
                 (12, 1), (12, 2), (12, 4), (12, 8), (12, 9), (12, 11), (12, 13), (12, 14), (12, 16), (12, 17),
                 (12, 19), (12, 20), (12, 21), (12, 28), (12, 29), (12, 30), (12, 31), (12, 32), (12, 34), (12, 35),
                 (13, 2), (13, 3), (13, 4), (13, 6), (13, 8), (13, 9), (13, 12), (13, 16), (13, 18), (13, 20), (13, 22),
                 (13, 27), (13, 28), (13, 30), (13, 31), (13, 32), (13, 34), (14, 2), (14, 4), (14, 5), (14, 8),
                 (14, 9), (14, 10), (14, 11), (14, 17), (14, 18), (14, 22), (14, 28), (14, 29), (14, 33), (14, 34),
                 (15, 4), (15, 7), (15, 8), (15, 9), (15, 10), (15, 11), (15, 12), (15, 15), (15, 17), (15, 19),
                 (15, 20), (15, 22), (15, 25), (15, 26), (15, 28), (15, 29), (15, 33), (16, 1), (16, 4), (16, 5),
                 (16, 6), (16, 8), (16, 11), (16, 14), (16, 15), (16, 19), (16, 20), (16, 22), (16, 24), (16, 30),
                 (16, 33), (16, 35), (17, 3), (17, 4), (17, 12), (17, 23), (17, 24), (17, 25), (17, 26), (17, 27),
                 (17, 28), (17, 30), (17, 32), (17, 34), (18, 1), (18, 3), (18, 4), (18, 6), (18, 7), (18, 8), (18, 14),
                 (18, 15), (18, 18), (18, 19), (18, 20), (18, 22), (18, 23), (18, 32), (18, 33), (18, 34), (19, 1),
                 (19, 3), (19, 4), (19, 6), (19, 7), (19, 9), (19, 10), (19, 12), (19, 15), (19, 16), (19, 18),
                 (19, 19), (19, 20), (19, 21), (19, 23), (19, 27), (19, 28), (19, 29), (19, 31), (19, 34), (19, 35),
                 (20, 2), (20, 4), (20, 5), (20, 7), (20, 9), (20, 10), (20, 11), (20, 12), (20, 15), (20, 20),
                 (20, 21), (20, 23), (20, 24), (20, 25), (20, 26), (20, 28), (20, 29), (20, 30), (20, 32), (20, 34),
                 (20, 35), (21, 1), (21, 3), (21, 4), (21, 6), (21, 7), (21, 9), (21, 10), (21, 12), (21, 13), (21, 15),
                 (21, 17), (21, 19), (21, 21), (21, 22), (21, 26), (21, 27), (21, 30), (21, 31), (21, 32), (22, 2),
                 (22, 7), (22, 8), (22, 10), (22, 13), (22, 16), (22, 18), (22, 19), (22, 20), (22, 21), (22, 22),
                 (22, 29), (22, 31), (22, 33), (22, 34), (23, 4), (23, 5), (23, 6), (23, 7), (23, 12), (23, 16),
                 (23, 22), (23, 23), (23, 25), (23, 26), (23, 27), (23, 28), (23, 29), (23, 31), (23, 32), (23, 33),
                 (23, 34), (24, 1), (24, 4), (24, 5), (24, 6), (24, 9), (24, 12), (24, 15), (24, 16), (24, 18),
                 (24, 20), (24, 21), (24, 22), (24, 23), (24, 24), (24, 25), (24, 29), (24, 31), (24, 32), (24, 33),
                 (25, 1), (25, 2), (25, 3), (25, 7), (25, 8), (25, 14), (25, 15), (25, 18), (25, 19), (25, 23),
                 (25, 26), (25, 27), (25, 30), (25, 31), (26, 1), (26, 2), (26, 3), (26, 4), (26, 5), (26, 7), (26, 13),
                 (26, 14), (26, 16), (26, 17), (26, 19), (26, 22), (26, 23), (26, 24), (26, 25), (26, 31), (26, 32),
                 (26, 33), (26, 35), (27, 2), (27, 3), (27, 4), (27, 5), (27, 7), (27, 9), (27, 13), (27, 17), (27, 20),
                 (27, 22), (27, 23), (27, 26), (27, 27), (27, 28), (27, 35), (28, 1), (28, 2), (28, 3), (28, 5),
                 (28, 9), (28, 11), (28, 13), (28, 14), (28, 18), (28, 19), (28, 23), (28, 26), (28, 27), (28, 28),
                 (28, 29), (28, 31), (28, 32), (28, 33), (28, 35), (29, 1), (29, 3), (29, 6), (29, 11), (29, 12),
                 (29, 13), (29, 14), (29, 15), (29, 25), (29, 28), (29, 32), (30, 2), (30, 7), (30, 8), (30, 9),
                 (30, 10), (30, 11), (30, 14), (30, 17), (30, 20), (30, 21), (30, 22), (30, 23), (30, 24), (30, 25),
                 (30, 27), (30, 29), (30, 30), (30, 33), (30, 35), (31, 1), (31, 2), (31, 3), (31, 5), (31, 6), (31, 8),
                 (31, 10), (31, 11), (31, 12), (31, 15), (31, 16), (31, 18), (31, 19), (31, 22), (31, 24), (31, 26),
                 (31, 30), (31, 33), (31, 35), (32, 1), (32, 5), (32, 7), (32, 8), (32, 10), (32, 12), (32, 13),
                 (32, 16), (32, 17), (32, 18), (32, 19), (32, 22), (32, 25), (32, 27), (32, 29), (32, 30), (32, 31),
                 (32, 33), (32, 34), (32, 35), (33, 1), (33, 4), (33, 5), (33, 7), (33, 10), (33, 12), (33, 16),
                 (33, 17), (33, 21), (33, 24), (33, 25), (33, 26), (33, 32), (33, 33), (33, 34), (33, 35), (34, 4),
                 (34, 5), (34, 7), (34, 8), (34, 13), (34, 15), (34, 16), (34, 20), (34, 21), (34, 22), (34, 23),
                 (34, 25), (34, 28), (34, 29), (34, 30), (34, 31), (34, 32), (34, 33), (34, 34), (35, 2), (35, 3),
                 (35, 8), (35, 10), (35, 13), (35, 16), (35, 17), (35, 21), (35, 23), (35, 24), (35, 25), (35, 28),
                 (35, 29), (35, 31), (35, 34), (35, 35))
$ Visualisation for network
$  1  2
$  1  4
$  1  6
$  1  8
$  1 14
$  1 17
$  1 19
$  1 21
$  1 22
$  1 23
$  1 25
$  1 26
$  1 28
$  1 32
$  2  3
$  2  5
$  2 10
$  2 15
$  2 17
$  2 19
$  2 21
$  2 23
$  2 24
$  2 26
$  2 27
$  2 28
$  2 30
$  2 31
$  2 34
$  3  3
$  3  5
$  3  6
$  3 10
$  3 12
$  3 16
$  3 17
$  3 18
$  3 20
$  3 21
$  3 22
$  3 23
$  3 24
$  3 25
$  3 27
$  3 29
$  3 31
$  3 32
$  4  4
$  4  7
$  4 13
$  4 15
$  4 16
$  4 18
$  4 19
$  4 20
$  4 23
$  4 26
$  4 30
$  4 32
$  4 33
$  4 34
$  5  5
$  5  8
$  5  9
$  5 11
$  5 13
$  5 14
$  5 18
$  5 20
$  5 21
$  5 22
$  5 25
$  5 26
$  5 27
$  5 29
$  5 33
$  6  1
$  6 10
$  6 11
$  6 13
$  6 17
$  6 18
$  6 19
$  6 21
$  6 22
$  6 23
$  6 25
$  6 27
$  6 28
$  6 29
$  6 30
$  6 31
$  6 34
$  7  3
$  7  7
$  7 17
$  7 21
$  7 22
$  7 23
$  7 25
$  7 27
$  7 28
$  7 31
$  7 33
$  7 34
$  7 35
$  8  3
$  8  5
$  8  7
$  8  9
$  8 10
$  8 12
$  8 14
$  8 15
$  8 17
$  8 18
$  8 19
$  8 20
$  8 21
$  8 24
$  8 32
$  8 34
$  8 35
$  9  1
$  9  2
$  9  7
$  9  8
$  9  9
$  9 10
$  9 11
$  9 12
$  9 13
$  9 15
$  9 16
$  9 19
$  9 23
$  9 25
$  9 26
$  9 27
$  9 28
$  9 32
$ 10  1
$ 10  2
$ 10  3
$ 10  6
$ 10  7
$ 10  9
$ 10 11
$ 10 12
$ 10 13
$ 10 15
$ 10 16
$ 10 17
$ 10 20
$ 10 22
$ 10 24
$ 10 25
$ 10 26
$ 10 29
$ 10 30
$ 10 31
$ 10 32
$ 10 33
$ 10 35
$ 11  1
$ 11  3
$ 11  5
$ 11  6
$ 11 10
$ 11 12
$ 11 17
$ 11 20
$ 11 21
$ 11 30
$ 11 31
$ 11 33
$ 12  1
$ 12  2
$ 12  4
$ 12  8
$ 12  9
$ 12 11
$ 12 13
$ 12 14
$ 12 16
$ 12 17
$ 12 19
$ 12 20
$ 12 21
$ 12 28
$ 12 29
$ 12 30
$ 12 31
$ 12 32
$ 12 34
$ 12 35
$ 13  2
$ 13  3
$ 13  4
$ 13  6
$ 13  8
$ 13  9
$ 13 12
$ 13 16
$ 13 18
$ 13 20
$ 13 22
$ 13 27
$ 13 28
$ 13 30
$ 13 31
$ 13 32
$ 13 34
$ 14  2
$ 14  4
$ 14  5
$ 14  8
$ 14  9
$ 14 10
$ 14 11
$ 14 17
$ 14 18
$ 14 22
$ 14 28
$ 14 29
$ 14 33
$ 14 34
$ 15  4
$ 15  7
$ 15  8
$ 15  9
$ 15 10
$ 15 11
$ 15 12
$ 15 15
$ 15 17
$ 15 19
$ 15 20
$ 15 22
$ 15 25
$ 15 26
$ 15 28
$ 15 29
$ 15 33
$ 16  1
$ 16  4
$ 16  5
$ 16  6
$ 16  8
$ 16 11
$ 16 14
$ 16 15
$ 16 19
$ 16 20
$ 16 22
$ 16 24
$ 16 30
$ 16 33
$ 16 35
$ 17  3
$ 17  4
$ 17 12
$ 17 23
$ 17 24
$ 17 25
$ 17 26
$ 17 27
$ 17 28
$ 17 30
$ 17 32
$ 17 34
$ 18  1
$ 18  3
$ 18  4
$ 18  6
$ 18  7
$ 18  8
$ 18 14
$ 18 15
$ 18 18
$ 18 19
$ 18 20
$ 18 22
$ 18 23
$ 18 32
$ 18 33
$ 18 34
$ 19  1
$ 19  3
$ 19  4
$ 19  6
$ 19  7
$ 19  9
$ 19 10
$ 19 12
$ 19 15
$ 19 16
$ 19 18
$ 19 19
$ 19 20
$ 19 21
$ 19 23
$ 19 27
$ 19 28
$ 19 29
$ 19 31
$ 19 34
$ 19 35
$ 20  2
$ 20  4
$ 20  5
$ 20  7
$ 20  9
$ 20 10
$ 20 11
$ 20 12
$ 20 15
$ 20 20
$ 20 21
$ 20 23
$ 20 24
$ 20 25
$ 20 26
$ 20 28
$ 20 29
$ 20 30
$ 20 32
$ 20 34
$ 20 35
$ 21  1
$ 21  3
$ 21  4
$ 21  6
$ 21  7
$ 21  9
$ 21 10
$ 21 12
$ 21 13
$ 21 15
$ 21 17
$ 21 19
$ 21 21
$ 21 22
$ 21 26
$ 21 27
$ 21 30
$ 21 31
$ 21 32
$ 22  2
$ 22  7
$ 22  8
$ 22 10
$ 22 13
$ 22 16
$ 22 18
$ 22 19
$ 22 20
$ 22 21
$ 22 22
$ 22 29
$ 22 31
$ 22 33
$ 22 34
$ 23  4
$ 23  5
$ 23  6
$ 23  7
$ 23 12
$ 23 16
$ 23 22
$ 23 23
$ 23 25
$ 23 26
$ 23 27
$ 23 28
$ 23 29
$ 23 31
$ 23 32
$ 23 33
$ 23 34
$ 24  1
$ 24  4
$ 24  5
$ 24  6
$ 24  9
$ 24 12
$ 24 15
$ 24 16
$ 24 18
$ 24 20
$ 24 21
$ 24 22
$ 24 23
$ 24 24
$ 24 25
$ 24 29
$ 24 31
$ 24 32
$ 24 33
$ 25  1
$ 25  2
$ 25  3
$ 25  7
$ 25  8
$ 25 14
$ 25 15
$ 25 18
$ 25 19
$ 25 23
$ 25 26
$ 25 27
$ 25 30
$ 25 31
$ 26  1
$ 26  2
$ 26  3
$ 26  4
$ 26  5
$ 26  7
$ 26 13
$ 26 14
$ 26 16
$ 26 17
$ 26 19
$ 26 22
$ 26 23
$ 26 24
$ 26 25
$ 26 31
$ 26 32
$ 26 33
$ 26 35
$ 27  2
$ 27  3
$ 27  4
$ 27  5
$ 27  7
$ 27  9
$ 27 13
$ 27 17
$ 27 20
$ 27 22
$ 27 23
$ 27 26
$ 27 27
$ 27 28
$ 27 35
$ 28  1
$ 28  2
$ 28  3
$ 28  5
$ 28  9
$ 28 11
$ 28 13
$ 28 14
$ 28 18
$ 28 19
$ 28 23
$ 28 26
$ 28 27
$ 28 28
$ 28 29
$ 28 31
$ 28 32
$ 28 33
$ 28 35
$ 29  1
$ 29  3
$ 29  6
$ 29 11
$ 29 12
$ 29 13
$ 29 14
$ 29 15
$ 29 25
$ 29 28
$ 29 32
$ 30  2
$ 30  7
$ 30  8
$ 30  9
$ 30 10
$ 30 11
$ 30 14
$ 30 17
$ 30 20
$ 30 21
$ 30 22
$ 30 23
$ 30 24
$ 30 25
$ 30 27
$ 30 29
$ 30 30
$ 30 33
$ 30 35
$ 31  1
$ 31  2
$ 31  3
$ 31  5
$ 31  6
$ 31  8
$ 31 10
$ 31 11
$ 31 12
$ 31 15
$ 31 16
$ 31 18
$ 31 19
$ 31 22
$ 31 24
$ 31 26
$ 31 30
$ 31 33
$ 31 35
$ 32  1
$ 32  5
$ 32  7
$ 32  8
$ 32 10
$ 32 12
$ 32 13
$ 32 16
$ 32 17
$ 32 18
$ 32 19
$ 32 22
$ 32 25
$ 32 27
$ 32 29
$ 32 30
$ 32 31
$ 32 33
$ 32 34
$ 32 35
$ 33  1
$ 33  4
$ 33  5
$ 33  7
$ 33 10
$ 33 12
$ 33 16
$ 33 17
$ 33 21
$ 33 24
$ 33 25
$ 33 26
$ 33 32
$ 33 33
$ 33 34
$ 33 35
$ 34  4
$ 34  5
$ 34  7
$ 34  8
$ 34 13
$ 34 15
$ 34 16
$ 34 20
$ 34 21
$ 34 22
$ 34 23
$ 34 25
$ 34 28
$ 34 29
$ 34 30
$ 34 31
$ 34 32
$ 34 33
$ 34 34
$ 35  2
$ 35  3
$ 35  8
$ 35 10
$ 35 13
$ 35 16
$ 35 17
$ 35 21
$ 35 23
$ 35 24
$ 35 25
$ 35 28
$ 35 29
$ 35 31
$ 35 34
$ 35 35

